VACCINE = Vaccine(1..4);
m = 24;
age = [CHILD, BABY, SENIOR, AGED, ANCIENT, YOUTH, BABY, BABY, ANCIENT, AGED, ANCIENT, AGED, YOUTH, BABY, ADULT, CHILD, CHILD, ADULT, ADULT, ADULT, SENIOR, YOUTH, SENIOR, ANCIENT];
gender = [MALE, OTHER, OTHER, FEMALE, FEMALE, MALE, MALE, MALE, OTHER, FEMALE, FEMALE, OTHER, MALE, FEMALE, OTHER, OTHER, MALE, FEMALE, FEMALE, MALE, MALE, FEMALE, FEMALE, MALE];
health = [COMPROMISED, COMPROMISED, POOR, POOR, GOOD, GOOD, COMPROMISED, POOR, GOOD, POOR, POOR, GOOD, POOR, GOOD, GOOD, GOOD, GOOD, POOR, COMPROMISED, COMPROMISED, POOR, GOOD, GOOD, COMPROMISED];
exposure = [AVERAGE, LOW, LOW, LOW, HIGH, LOW, EXTREME, EXTREME, LOW, LOW, HIGH, HIGH, AVERAGE, HIGH, EXTREME, HIGH, HIGH, EXTREME, LOW, AVERAGE, HIGH, AVERAGE, EXTREME, HIGH];
size = [10, 8, 11, 11, 6, 8, 6, 7, 7, 10, 8, 7, 8, 9, 11, 11, 11, 9, 10, 6, 11, 7, 10, 6];
minsize = 6;
age_group_min = [1, 0, 0, 0, 0, 0, 0];
age_group_max = [23, 13, 8, 12, 8, 14, 18];
max_people_diff = 27;
max_share_vaccines = 3;
health_information = {4, 5, 24};
exposure_information = {3, 8, 11, 16};